(set-option :auto-config false)
(set-option :model true)
(set-option :model.partial false)
(set-option :smt.mbqi false)
(define-sort SMT_Elt () Int)
(define-sort SMT_Set () (Array SMT_Elt Bool))
(define-fun smt_set_emp () SMT_Set ((as const SMT_Set) false))
(define-fun smt_set_mem ((x SMT_Elt) (s SMT_Set)) Bool (select s x))
(define-fun smt_set_add ((s SMT_Set) (x SMT_Elt)) SMT_Set (store s x true))
(define-fun smt_set_cup ((s1 SMT_Set) (s2 SMT_Set)) SMT_Set ((_ map or) s1 s2))
(define-fun smt_set_cap ((s1 SMT_Set) (s2 SMT_Set)) SMT_Set ((_ map and) s1 s2))
(define-fun smt_set_com ((s SMT_Set)) SMT_Set ((_ map not) s))
(define-fun smt_set_dif ((s1 SMT_Set) (s2 SMT_Set)) SMT_Set (smt_set_cap s1 (smt_set_com s2)))
(define-fun smt_set_sub ((s1 SMT_Set) (s2 SMT_Set)) Bool (= smt_set_emp (smt_set_dif s1 s2)))
(declare-fun z3v68 () Int)
(declare-fun z3v69 () Int)
(declare-fun z3v70 () Int)
(assert (distinct z3v68 z3v69 z3v70))
(declare-fun z3v71 () Int)
(declare-fun z3v72 () Int)
(assert (distinct z3v71 z3v72))
(declare-fun z3v73 () Int)
(declare-fun z3v74 () Int)
(declare-fun z3v75 () Int)
(assert (distinct z3v73 z3v74 z3v75))
(declare-fun z3v76 () Int)
(declare-fun z3f77 (Int) Int)
(declare-fun z3v78 () Int)
(declare-fun z3v79 () Int)
(declare-fun z3v80 () Int)
(declare-fun z3f81 (Int) Int)
(declare-fun z3f82 (Int) Int)
(declare-fun z3f83 (Int) Bool)
(declare-fun z3f84 (Int Int) Int)
(declare-fun z3v85 () Int)
(declare-fun z3v86 () Int)
(declare-fun z3v87 () Int)
(declare-fun z3v88 () Int)
(declare-fun z3v89 () Int)
(declare-fun z3v90 () Int)
(declare-fun z3v91 () Real)
(declare-fun z3v92 () Real)
(declare-fun z3f93 (Int) Bool)
(declare-fun z3f94 (Int) Int)
(declare-fun z3v95 () Real)
(push 1)
(assert true)
(assert (= z3v95 z3v91))
(assert (and (>= (z3f77 z3v76) 0) (>= (z3f77 z3v78) 0) (>= (z3f77 z3v79) 0) (= (z3f81 z3v79) z3v80) (= (z3f82 z3v79) z3v78) (= (z3f77 z3v79) (+ 1 (z3f77 z3v78))) (= (z3f83 z3v79) false) (= z3v79 (z3f84 z3v80 z3v78)) (>= (z3f77 z3v79) 0) (= z3v79 z3v85) (>= (z3f77 z3v79) 0) (>= (z3f77 z3v86) 0) (= (z3f81 z3v86) z3v87) (= (z3f82 z3v86) z3v85) (= (z3f77 z3v86) (+ 1 (z3f77 z3v85))) (= (z3f83 z3v86) false) (= z3v86 (z3f84 z3v87 z3v85)) (>= (z3f77 z3v86) 0) (= z3v86 z3v76) (>= (z3f77 z3v86) 0) (>= (z3f77 z3v88) 0) (= (z3f81 z3v88) z3v89) (= (z3f82 z3v88) z3v76) (= (z3f77 z3v88) (+ 1 (z3f77 z3v76))) (= (z3f83 z3v88) false) (= z3v88 (z3f84 z3v89 z3v76)) (>= (z3f77 z3v88) 0) (= z3v88 z3v90) (>= (z3f77 z3v88) 0) (>= (z3f77 z3v85) 0) (>= (z3f77 z3v90) 0) (= z3v92 z3v91) (z3f93 z3v71) (= (z3f94 z3v68) z3v68) (= (z3f94 z3v69) z3v69) (not (z3f93 z3v72)) (= (z3f94 z3v70) z3v70)))
(push 1)
(assert (not (not (= z3v95 z3v91))))
(check-sat)
(pop 1)
(push 1)
(assert (not (<= z3v95 z3v91)))
(check-sat)
(pop 1)
(push 1)
(assert (not (>= z3v95 z3v91)))
(check-sat)
(pop 1)
(push 1)
(assert (not (<  z3v95 z3v91)))
(check-sat)
(pop 1)
(push 1)
(assert (not (>  z3v95 z3v91)))
(check-sat)
(pop 1)
(pop 1)
(declare-fun z3v96 () Real)
(push 1)
(assert true)
(assert (and (>= (z3f77 z3v76) 0) (>= (z3f77 z3v78) 0) (>= (z3f77 z3v79) 0) (= (z3f81 z3v79) z3v80) (= (z3f82 z3v79) z3v78) (= (z3f77 z3v79) (+ 1 (z3f77 z3v78))) (= (z3f83 z3v79) false) (= z3v79 (z3f84 z3v80 z3v78)) (>= (z3f77 z3v79) 0) (= z3v79 z3v85) (>= (z3f77 z3v79) 0) (>= (z3f77 z3v86) 0) (= (z3f81 z3v86) z3v87) (= (z3f82 z3v86) z3v85) (= (z3f77 z3v86) (+ 1 (z3f77 z3v85))) (= (z3f83 z3v86) false) (= z3v86 (z3f84 z3v87 z3v85)) (>= (z3f77 z3v86) 0) (= z3v86 z3v76) (>= (z3f77 z3v86) 0) (>= (z3f77 z3v88) 0) (= (z3f81 z3v88) z3v89) (= (z3f82 z3v88) z3v76) (= (z3f77 z3v88) (+ 1 (z3f77 z3v76))) (= (z3f83 z3v88) false) (= z3v88 (z3f84 z3v89 z3v76)) (>= (z3f77 z3v88) 0) (= z3v88 z3v90) (>= (z3f77 z3v88) 0) (>= (z3f77 z3v85) 0) (>= (z3f77 z3v90) 0) (z3f93 z3v71) (= (z3f94 z3v68) z3v68) (= (z3f94 z3v69) z3v69) (not (z3f93 z3v72)) (= (z3f94 z3v70) z3v70)))
(assert (= z3v96 z3v91))
(assert (<= z3v96 z3v91))
(assert (>= z3v96 z3v91))
(declare-fun z3v97 () Int)
(push 1)
(assert (not (not (= z3v97 z3v74))))
(check-sat)
(pop 1)
(push 1)
(assert (not (not (= z3v97 z3v75))))
(check-sat)
(pop 1)
(push 1)
(assert (not (not (= z3v97 z3v73))))
(check-sat)
(pop 1)
(push 1)
(assert (not (<= z3v97 z3v74)))
(check-sat)
(pop 1)
(push 1)
(assert (not (<= z3v97 z3v75)))
(check-sat)
(pop 1)
(push 1)
(assert (not (<= z3v97 z3v73)))
(check-sat)
(pop 1)
(push 1)
(assert (not (>= z3v97 z3v74)))
(check-sat)
(pop 1)
(push 1)
(assert (not (>= z3v97 z3v75)))
(check-sat)
(pop 1)
(push 1)
(assert (not (>= z3v97 z3v73)))
(check-sat)
(pop 1)
(push 1)
(assert (not (<  z3v97 z3v74)))
(check-sat)
(pop 1)
(push 1)
(assert (not (<  z3v97 z3v75)))
(check-sat)
(pop 1)
(push 1)
(assert (not (<  z3v97 z3v73)))
(check-sat)
(pop 1)
(push 1)
(assert (not (= z3v97 z3v74)))
(check-sat)
(pop 1)
(push 1)
(assert (not (= z3v97 z3v75)))
(check-sat)
(pop 1)
(push 1)
(assert (not (= z3v97 z3v73)))
(check-sat)
(pop 1)
(push 1)
(assert (not (>  z3v97 z3v74)))
(check-sat)
(pop 1)
(push 1)
(assert (not (>  z3v97 z3v75)))
(check-sat)
(pop 1)
(push 1)
(assert (not (>  z3v97 z3v73)))
(check-sat)
(pop 1)
(pop 1)
(push 1)
(assert true)
(assert (and (>= (z3f77 z3v76) 0) (>= (z3f77 z3v78) 0) (>= (z3f77 z3v79) 0) (= (z3f81 z3v79) z3v80) (= (z3f82 z3v79) z3v78) (= (z3f77 z3v79) (+ 1 (z3f77 z3v78))) (= (z3f83 z3v79) false) (= z3v79 (z3f84 z3v80 z3v78)) (>= (z3f77 z3v79) 0) (= z3v79 z3v85) (>= (z3f77 z3v79) 0) (>= (z3f77 z3v86) 0) (= (z3f81 z3v86) z3v87) (= (z3f82 z3v86) z3v85) (= (z3f77 z3v86) (+ 1 (z3f77 z3v85))) (= (z3f83 z3v86) false) (= z3v86 (z3f84 z3v87 z3v85)) (>= (z3f77 z3v86) 0) (= z3v86 z3v76) (>= (z3f77 z3v86) 0) (>= (z3f77 z3v88) 0) (= (z3f81 z3v88) z3v89) (= (z3f82 z3v88) z3v76) (= (z3f77 z3v88) (+ 1 (z3f77 z3v76))) (= (z3f83 z3v88) false) (= z3v88 (z3f84 z3v89 z3v76)) (>= (z3f77 z3v88) 0) (= z3v88 z3v90) (>= (z3f77 z3v88) 0) (>= (z3f77 z3v85) 0) (>= (z3f77 z3v90) 0) (z3f93 z3v71) (= (z3f94 z3v68) z3v68) (= (z3f94 z3v69) z3v69) (not (z3f93 z3v72)) (= (z3f94 z3v70) z3v70)))
(assert (= z3v96 z3v91))
(pop 1)
(declare-fun z3v98 () Real)
(push 1)
(assert true)
(assert (= z3v98 z3v91))
(assert (and (>= (z3f77 z3v76) 0) (>= (z3f77 z3v78) 0) (>= (z3f77 z3v79) 0) (= (z3f81 z3v79) z3v80) (= (z3f82 z3v79) z3v78) (= (z3f77 z3v79) (+ 1 (z3f77 z3v78))) (= (z3f83 z3v79) false) (= z3v79 (z3f84 z3v80 z3v78)) (>= (z3f77 z3v79) 0) (= z3v79 z3v85) (>= (z3f77 z3v79) 0) (>= (z3f77 z3v86) 0) (= (z3f81 z3v86) z3v87) (= (z3f82 z3v86) z3v85) (= (z3f77 z3v86) (+ 1 (z3f77 z3v85))) (= (z3f83 z3v86) false) (= z3v86 (z3f84 z3v87 z3v85)) (>= (z3f77 z3v86) 0) (= z3v86 z3v76) (>= (z3f77 z3v86) 0) (>= (z3f77 z3v88) 0) (= (z3f81 z3v88) z3v89) (= (z3f82 z3v88) z3v76) (= (z3f77 z3v88) (+ 1 (z3f77 z3v76))) (= (z3f83 z3v88) false) (= z3v88 (z3f84 z3v89 z3v76)) (>= (z3f77 z3v88) 0) (= z3v88 z3v90) (>= (z3f77 z3v88) 0) (>= (z3f77 z3v85) 0) (>= (z3f77 z3v90) 0) (= z3v92 z3v91) (z3f93 z3v71) (= (z3f94 z3v68) z3v68) (= (z3f94 z3v69) z3v69) (not (z3f93 z3v72)) (= (z3f94 z3v70) z3v70)))
(push 1)
(assert (not (= z3v98 z3v91)))
(check-sat)
(pop 1)
(pop 1)
(declare-fun z3v99 () Int)
(declare-fun z3f100 (Int) Int)
(declare-fun z3v101 () Int)
(declare-fun z3f102 (Int) Int)
(declare-fun z3f103 (Int) Int)
(declare-fun z3f104 (Int) Int)
(declare-fun z3v105 () Int)
(declare-fun z3v106 () Int)
(push 1)
(assert true)
(assert (= z3v106 z3v86))
(assert (>= (z3f77 z3v106) 0))
(assert (= (z3f81 z3v106) z3v87))
(assert (= (z3f82 z3v106) z3v85))
(assert (= (z3f77 z3v106) (+ 1 (z3f77 z3v85))))
(assert (= (z3f83 z3v106) false))
(assert (= z3v106 (z3f84 z3v87 z3v85)))
(assert (>= (z3f77 z3v106) 0))
(assert (= z3v106 z3v76))
(assert (>= (z3f77 z3v106) 0))
(assert (and (>= (z3f77 z3v76) 0) (>= (z3f77 z3v78) 0) (= (z3f100 z3v99) z3v87) (= (z3f102 z3v99) z3v101) (= (z3f103 z3v99) z3v87) (= (z3f104 z3v99) z3v101) (>= (z3f77 z3v79) 0) (= (z3f81 z3v79) z3v80) (= (z3f82 z3v79) z3v78) (= (z3f77 z3v79) (+ 1 (z3f77 z3v78))) (= (z3f83 z3v79) false) (= z3v79 (z3f84 z3v80 z3v78)) (>= (z3f77 z3v79) 0) (= z3v79 z3v85) (>= (z3f77 z3v79) 0) (>= (z3f77 z3v86) 0) (= (z3f81 z3v86) z3v87) (= (z3f82 z3v86) z3v85) (= (z3f77 z3v86) (+ 1 (z3f77 z3v85))) (= (z3f83 z3v86) false) (= z3v86 (z3f84 z3v87 z3v85)) (>= (z3f77 z3v86) 0) (= z3v86 z3v76) (>= (z3f77 z3v86) 0) (>= (z3f77 z3v88) 0) (= (z3f81 z3v88) z3v89) (= (z3f82 z3v88) z3v76) (= (z3f77 z3v88) (+ 1 (z3f77 z3v76))) (= (z3f83 z3v88) false) (= z3v88 (z3f84 z3v89 z3v76)) (>= (z3f77 z3v88) 0) (= z3v88 z3v90) (>= (z3f77 z3v88) 0) (>= (z3f77 z3v85) 0) (>= (z3f77 z3v90) 0) (>= (z3f77 z3v105) 0) (= z3v105 z3v86) (>= (z3f77 z3v105) 0) (= (z3f81 z3v105) z3v87) (= (z3f82 z3v105) z3v85) (= (z3f77 z3v105) (+ 1 (z3f77 z3v85))) (= (z3f83 z3v105) false) (= z3v105 (z3f84 z3v87 z3v85)) (>= (z3f77 z3v105) 0) (= z3v105 z3v76) (>= (z3f77 z3v105) 0) (z3f93 z3v71) (= (z3f94 z3v68) z3v68) (= (z3f94 z3v69) z3v69) (not (z3f93 z3v72)) (= (z3f94 z3v70) z3v70)))
(push 1)
(assert (not (and (>= (z3f77 z3v106) 0) (<  (z3f77 z3v106) (z3f77 z3v90)))))
(check-sat)
(pop 1)
(pop 1)
(declare-fun z3v107 () Int)
(declare-fun z3v108 () Int)
(declare-fun z3v109 () Int)
(push 1)
(assert true)
(assert (= z3v109 z3v107))
(assert (>= (z3f77 z3v109) 0))
(assert (and (>= (z3f77 z3v107) 0) (>= (z3f77 z3v108) 0) (= z3v108 z3v107) (>= (z3f77 z3v108) 0) (z3f93 z3v71) (= (z3f94 z3v68) z3v68) (= (z3f94 z3v69) z3v69) (not (z3f93 z3v72)) (= (z3f94 z3v70) z3v70)))
(push 1)
(assert (not (>  (z3f77 z3v109) 0)))
(check-sat)
(pop 1)
(pop 1)
(declare-fun z3v110 () Int)
(declare-fun z3v111 () Int)
(declare-fun z3v112 () Int)
(push 1)
(assert true)
(assert (= z3v112 z3v107))
(assert (>= (z3f77 z3v112) 0))
(assert (and (>= (z3f77 z3v107) 0) (>= (z3f77 z3v110) 0) (= (z3f77 z3v110) (- (z3f77 z3v107) 1)) (>= (z3f77 z3v111) 0) (= z3v111 z3v107) (>= (z3f77 z3v111) 0) (z3f93 z3v71) (= (z3f94 z3v68) z3v68) (= (z3f94 z3v69) z3v69) (not (z3f93 z3v72)) (= (z3f94 z3v70) z3v70)))
(push 1)
(assert (not (>  (z3f77 z3v112) 0)))
(check-sat)
(pop 1)
(pop 1)
